c SAT Generator for power-law distributed variable frequencies
c -g u -v 20 -c 91 -k 3 -p 2.750000 -b 3.200000 -f /home/schmidt/Devel/ni-kop-sat/data/ensemble/ruf20-91/ruf20-91-781 -u 1 -U 1 -s 4234086405
p cnf 20 91
-11 -12 -17 0
13 -14 18 0
5 11 16 0
5 -19 -20 0
7 15 -16 0
-6 -7 10 0
2 -12 18 0
-8 -10 -13 0
-2 11 12 0
-4 -10 -20 0
4 7 13 0
10 -14 -20 0
9 16 -20 0
-5 -10 15 0
-4 -6 11 0
-5 9 -16 0
-4 5 19 0
1 -3 14 0
-2 3 5 0
10 19 20 0
-11 15 18 0
-9 16 17 0
-2 8 16 0
14 15 16 0
-3 8 12 0
-5 -18 19 0
4 -6 -12 0
-7 -15 17 0
2 -9 -10 0
-8 -11 -18 0
-1 2 -11 0
-3 5 -19 0
-5 -6 -13 0
5 -17 -20 0
4 -7 -18 0
1 -11 -15 0
11 -15 -17 0
-6 8 13 0
-14 18 -19 0
3 7 -9 0
8 -13 -20 0
-4 10 -14 0
-12 14 -20 0
-2 -6 10 0
-13 -14 -15 0
-1 -19 20 0
-1 2 3 0
2 -3 -17 0
1 8 -9 0
-3 -12 -17 0
-1 11 17 0
-4 -8 -14 0
5 -6 14 0
-4 -11 16 0
-4 -9 -12 0
4 6 -18 0
5 14 18 0
-1 -4 -5 0
-3 -11 18 0
6 -7 -16 0
-2 3 -19 0
-5 -8 -18 0
-9 12 -17 0
7 -9 -15 0
-6 -10 11 0
-4 -12 15 0
-4 -12 16 0
12 -13 15 0
-2 -14 -16 0
8 13 -15 0
5 -15 17 0
3 8 -13 0
-8 -9 16 0
-2 -3 -13 0
-10 -13 -20 0
-2 4 -6 0
3 -9 16 0
-2 4 -13 0
-2 9 15 0
2 -10 -13 0
1 -13 16 0
-1 3 14 0
1 -10 15 0
3 -8 -11 0
-4 5 -20 0
1 8 -14 0
-2 -7 -11 0
-2 14 18 0
-3 5 12 0
-6 -13 17 0
-4 -11 15 0
